0000000000000000
0000000000000000
0000110000000000
0000111000000000
0001111100000000
0001111100000000
0000111110000000
0000011110000000
0000011110000000
0000011110000000
0000011110000000
0000011110000000
0000011100000000
0000011000000000
0000011000000000
0000000000000000
